sifdecoder -A pc64.lnx.gfo -st   SYNPOP24

 Problem name: SYNPOP24

 Double precision version will be formed

 
 There are 7353 linear equality constraints
 
 There are 6968 variables bounded only from below 
 
 
 File successfully decoded
 CUTEST: tools (double precision version) compiled successfully
 CUTEst: ipopt (double precision version) compiled successfully

******************************************************************************
This program contains Ipopt, a library for large-scale nonlinear optimization.
 Ipopt is released as open source code under the Eclipse Public License (EPL).
         For more information visit http://projects.coin-or.org/Ipopt
******************************************************************************

This is Ipopt version trunk, running with linear solver ma57.

Number of nonzeros in equality constraint Jacobian...:    79720
Number of nonzeros in inequality constraint Jacobian.:        0
Number of nonzeros in Lagrangian Hessian.............:        0

Exception of type: TOO_FEW_DOF in file "../../../../Ipopt/src/Interfaces/IpIpoptApplication.cpp" at line 937:
 Exception message: status != TOO_FEW_DEGREES_OF_FREEDOM evaluated false: Too few degrees of freedom (rethrown)!

EXIT: Problem has too few degrees of freedom.

************************ CUTEst statistics ************************


 Package used            :  IPOPT
 Problem                 :  SYNPOP24  
 # variables             =            6968
 # constraints           =            7353
 # objective functions   =        0.1000000E+01
 # objective gradients   =        0.1000000E+01
 # objective Hessians    =        0.1000000E+01
 # Hessian-vector prdct  =        0.0000000E+00
 # constraints functions =        0.2000000E+01
 # constraints gradients =        0.2000000E+01
 # constraints Hessians  =        0.1000000E+01
 Exit code               =             -10
 Final f                 =        0.0000000000000000D+00
 Bounds feasibility      =        0.0000000000000000D+00
 Set up time             =            0.87 seconds
 Solve time              =            0.04 seconds


******************************************************************

